param n := 5;
param m := 5;
param : a := 1 1 3 1 2 3 1 3 4 1 4 8 1 5 3
             2 1 6 2 2 4 2 3 4 2 4 7 2 5 7
             3 1 6 3 2 6 3 3 5 3 4 7 3 5 4
             4 1 8 4 2 6 4 3 7 4 4 6 4 5 7
             5 1 5 5 2 5 5 3 8 5 4 3 5 5 8;